c This is a random SAT instance with 10 variables and 20 clauses
p cnf 10 20
-10 10 -6 5 2 4 -1 0
-7 4 -1 -3 1 9 8 3 0
-6 -2 -7 3 10 1 0
6 2 -7 0
-2 8 -9 7 -3 2 -4 0
2 0
-6 7 -8 -3 -4 -1 -5 0
4 7 3 6 -10 -4 9 -2 10 -3 0
-3 -7 -10 1 -2 -1 0
9 0
-4 -3 5 -2 4 3 6 -6 0
8 -10 9 -2 -9 -5 0
-4 -1 4 -6 6 0
1 -1 -7 4 -8 -9 10 0
-4 1 -9 2 4 8 5 0
-4 3 9 2 0
-2 8 3 1 -9 -7 7 -4 5 0
-5 -10 6 5 -2 -4 4 10 8 0
3 2 0
-10 8 1 -4 0